c is-unsat
p cnf 10 70
-1 -5 3 0
9 -6 -5 0
-3 4 -8 0
-6 -7 9 0
8 -6 7 0
-9 10 -4 0
-3 6 -2 0
10 -5 2 0
5 2 -7 0
5 -8 3 0
-3 -9 2 0
-4 3 -6 0
-8 -1 -2 0
-8 -6 -7 0
10 -1 6 0
3 -9 -4 0
-2 5 9 0
2 -7 -9 0
-7 -6 9 0
-3 8 6 0
-10 -7 -5 0
6 3 -10 0
5 8 -1 0
-6 -5 -1 0
-8 4 -3 0
-3 -4 -7 0
-5 -8 2 0
-9 -1 -7 0
3 -9 4 0
4 -1 6 0
-1 -10 2 0
9 -4 5 0
2 -8 -4 0
4 2 5 0
3 6 7 0
-6 1 4 0
2 1 9 0
-3 9 -4 0
-8 2 1 0
2 -4 -3 0
-4 -1 10 0
-1 -3 -2 0
8 -5 -3 0
-5 -10 8 0
2 3 8 0
-9 -3 -7 0
-7 -4 10 0
7 -9 -8 0
-5 -10 -8 0
-4 -7 9 0
-1 -6 -8 0
-3 -10 8 0
5 -1 -9 0
-6 -4 9 0
-4 -9 -10 0
-5 -6 1 0
-10 -7 -4 0
7 9 4 0
5 -6 -10 0
9 2 -3 0
8 -3 5 0
10 4 -2 0
-5 -6 -9 0
-7 4 6 0
-6 5 -7 0
2 4 -8 0
-3 4 -10 0
-6 -8 -3 0
-2 9 -5 0
5 -2 6 0
